unsat
(define-fun f ((x0 (BitVec 64)) (x1 (BitVec 64))) (BitVec 64) (bvmul x0 (bvadd x1 x1)))
(define-fun f ((x0 (BitVec 64)) (x1 (BitVec 64))) (BitVec 64) (bvmul x0 (bvadd x1 x1)))
int-arith15.sl running time : 0 m 2.232349821 s
times : 2.232349821
